Please solve the following SAT Problem encoded in DIMACS format, only return a single solution assignment without explanations, if there is any: 
p cnf 10 40
3 -1 -4 0
-5 -1 -6 0
-5 6 7 0
4 -2 -9 0
-6 -5 -2 0
-2 8 -4 0
-2 -3 -7 0
-7 -5 -9 0
4 10 -1 0
9 3 -1 0
-8 -2 -6 0
-5 -1 -3 0
9 8 7 0
7 -6 8 0
-6 8 -1 0
-4 10 -2 0
5 -1 -6 0
-5 -1 -9 0
3 -8 -10 0
3 -1 10 0
-5 10 7 0
5 8 6 0
-5 3 8 0
-9 -1 -7 0
-5 7 -9 0
7 -6 4 0
4 10 -5 0
3 -2 -5 0
8 3 10 0
-6 1 10 0
-4 -2 5 0
10 -9 6 0
-7 -1 -10 0
-2 3 -6 0
4 -1 -9 0
-9 -3 8 0
4 -5 -1 0
-2 -1 -10 0
1 -6 -5 0
3 -5 -9 0

